unsat
(define-fun skel ((n170 Bool) (n106 Bool) (i_16 Bool) (n169 Bool)) Bool (let ((_let_1 (and n106 i_16))) (and n169 (and (or n170 _let_1) (not (and n170 _let_1))))))
31.58user 0.02system 0:31.61elapsed 99%CPU (0avgtext+0avgdata 75460maxresident)k
0inputs+8outputs (0major+13559minor)pagefaults 0swaps
